min: c;

c = 3.71247842903832 * u5_t4_h2 + 3.71247842903832 * u5_t7_h2 + 3.12002327232202 * u5_t4_h3 + 3.12002327232202 * u5_t7_h3 + 2.69103689835164 * u5_t1_h4 + 2.69103689835164 * u5_t3_h4 + 2.69103689835164 * u5_t4_h4 + 2.69103689835164 * u5_t7_h4 + 3.72469211324209 * u5_t1_h5 + 3.72469211324209 * u5_t3_h5 + 3.72469211324209 * u5_t4_h5 + 3.72469211324209 * u5_t7_h5 + 4.23606096953185 * u5_t1_h6 + 4.23606096953185 * u5_t3_h6 + 4.23606096953185 * u5_t4_h6 + 4.23606096953185 * u5_t6_h6 + 4.23606096953185 * u5_t7_h6 + 3.76982597637102 * u5_t1_h7 + 3.76982597637102 * u5_t3_h7 + 3.76982597637102 * u5_t4_h7 + 3.76982597637102 * u5_t6_h7 + 5.72082718782553 * u5_t1_h8 + 5.72082718782553 * u5_t3_h8 + 5.72082718782553 * u5_t4_h8 + 5.72082718782553 * u5_t6_h8 + 4.83248594335076 * u5_t1_h9 + 4.83248594335076 * u5_t3_h9 + 4.83248594335076 * u5_t4_h9 + 4.83248594335076 * u5_t6_h9 + 5.35494984143703 * u5_t1_h10 + 5.35494984143703 * u5_t3_h10 + 5.35494984143703 * u5_t4_h10 + 5.35494984143703 * u5_t6_h10 + 3.92629797017084 * u5_t1_h11 + 3.92629797017084 * u5_t3_h11 + 3.92629797017084 * u5_t4_h11 + 3.92629797017084 * u5_t6_h11 + 6.44199481544875 * u5_t1_h12 + 6.44199481544875 * u5_t3_h12 + 6.44199481544875 * u5_t4_h12 + 6.44199481544875 * u5_t6_h12 + 4.44192254105988 * u5_t1_h13 + 4.44192254105988 * u5_t3_h13 + 4.44192254105988 * u5_t4_h13 + 4.44192254105988 * u5_t6_h13 + 4.44192254105988 * u5_t8_h13 + 5.44557549553553 * u5_t1_h14 + 5.44557549553553 * u5_t3_h14 + 5.44557549553553 * u5_t4_h14 + 5.44557549553553 * u5_t6_h14 + 5.44557549553553 * u5_t8_h14 + 6.47286052388004 * u5_t1_h15 + 6.47286052388004 * u5_t3_h15 + 6.47286052388004 * u5_t4_h15 + 6.47286052388004 * u5_t6_h15 + 6.47286052388004 * u5_t8_h15 + 6.47286052388004 * u5_t9_h15 + 5.6332372171812 * u5_t1_h16 + 5.6332372171812 * u5_t3_h16 + 5.6332372171812 * u5_t4_h16 + 5.6332372171812 * u5_t5_h16 + 5.6332372171812 * u5_t6_h16 + 5.6332372171812 * u5_t8_h16 + 5.6332372171812 * u5_t9_h16 + 5.97985647029479 * u5_t1_h17 + 5.97985647029479 * u5_t5_h17 + 5.97985647029479 * u5_t6_h17 + 5.97985647029479 * u5_t8_h17 + 5.97985647029479 * u5_t9_h17 + 5.97985647029479 * u5_t10_h17 + 6.34532814732582 * u5_t1_h18 + 6.34532814732582 * u5_t2_h18 + 6.34532814732582 * u5_t5_h18 + 6.34532814732582 * u5_t6_h18 + 6.34532814732582 * u5_t9_h18 + 6.34532814732582 * u5_t10_h18 + 5.9159206178663 * u5_t1_h19 + 5.9159206178663 * u5_t2_h19 + 5.9159206178663 * u5_t5_h19 + 5.9159206178663 * u5_t9_h19 + 5.9159206178663 * u5_t10_h19 + 5.15122645527786 * u5_t1_h20 + 5.15122645527786 * u5_t2_h20 + 5.15122645527786 * u5_t5_h20 + 5.15122645527786 * u5_t9_h20 + 5.15122645527786 * u5_t10_h20 + 5.57408596736754 * u5_t2_h21 + 5.57408596736754 * u5_t5_h21 + 5.57408596736754 * u5_t9_h21 + 5.57408596736754 * u5_t10_h21 + 5.86035034431304 * u5_t2_h22 + 5.86035034431304 * u5_t5_h22 + 5.86035034431304 * u5_t9_h22 + 5.86035034431304 * u5_t10_h22 + 5.51694859503733 * u5_t5_h23 + 5.51694859503733 * u5_t9_h23 + 5.51694859503733 * u5_t10_h23;
0 <= u5_t1_h4 <= 1;
0 <= u5_t1_h5 <= 1;
0 <= u5_t1_h6 <= 1;
0 <= u5_t1_h7 <= 1;
0 <= u5_t1_h8 <= 1;
0 <= u5_t1_h9 <= 1;
0 <= u5_t1_h10 <= 1;
0 <= u5_t1_h11 <= 1;
0 <= u5_t1_h12 <= 1;
0 <= u5_t1_h13 <= 1;
0 <= u5_t1_h14 <= 1;
0 <= u5_t1_h15 <= 1;
0 <= u5_t1_h16 <= 1;
0 <= u5_t1_h17 <= 1;
0 <= u5_t1_h18 <= 1;
0 <= u5_t1_h19 <= 1;
0 <= u5_t1_h20 <= 1;
u5_t1_h4 + u5_t1_h5 + u5_t1_h6 + u5_t1_h7 + u5_t1_h8 + u5_t1_h9 + u5_t1_h10 + u5_t1_h11 + u5_t1_h12 + u5_t1_h13 + u5_t1_h14 + u5_t1_h15 + u5_t1_h16 + u5_t1_h17 + u5_t1_h18 + u5_t1_h19 + u5_t1_h20 = 1;
0 <= u5_t2_h18 <= 1;
0 <= u5_t2_h19 <= 1;
0 <= u5_t2_h20 <= 1;
0 <= u5_t2_h21 <= 1;
0 <= u5_t2_h22 <= 1;
u5_t2_h18 + u5_t2_h19 + u5_t2_h20 + u5_t2_h21 + u5_t2_h22 = 3;
0 <= u5_t3_h4 <= 1;
0 <= u5_t3_h5 <= 1;
0 <= u5_t3_h6 <= 1;
0 <= u5_t3_h7 <= 1;
0 <= u5_t3_h8 <= 1;
0 <= u5_t3_h9 <= 1;
0 <= u5_t3_h10 <= 1;
0 <= u5_t3_h11 <= 1;
0 <= u5_t3_h12 <= 1;
0 <= u5_t3_h13 <= 1;
0 <= u5_t3_h14 <= 1;
0 <= u5_t3_h15 <= 1;
0 <= u5_t3_h16 <= 1;
u5_t3_h4 + u5_t3_h5 + u5_t3_h6 + u5_t3_h7 + u5_t3_h8 + u5_t3_h9 + u5_t3_h10 + u5_t3_h11 + u5_t3_h12 + u5_t3_h13 + u5_t3_h14 + u5_t3_h15 + u5_t3_h16 = 1;
0 <= u5_t4_h2 <= 1;
0 <= u5_t4_h3 <= 1;
0 <= u5_t4_h4 <= 1;
0 <= u5_t4_h5 <= 1;
0 <= u5_t4_h6 <= 1;
0 <= u5_t4_h7 <= 1;
0 <= u5_t4_h8 <= 1;
0 <= u5_t4_h9 <= 1;
0 <= u5_t4_h10 <= 1;
0 <= u5_t4_h11 <= 1;
0 <= u5_t4_h12 <= 1;
0 <= u5_t4_h13 <= 1;
0 <= u5_t4_h14 <= 1;
0 <= u5_t4_h15 <= 1;
0 <= u5_t4_h16 <= 1;
u5_t4_h2 + u5_t4_h3 + u5_t4_h4 + u5_t4_h5 + u5_t4_h6 + u5_t4_h7 + u5_t4_h8 + u5_t4_h9 + u5_t4_h10 + u5_t4_h11 + u5_t4_h12 + u5_t4_h13 + u5_t4_h14 + u5_t4_h15 + u5_t4_h16 = 3;
0 <= u5_t5_h16 <= 1;
0 <= u5_t5_h17 <= 1;
0 <= u5_t5_h18 <= 1;
0 <= u5_t5_h19 <= 1;
0 <= u5_t5_h20 <= 1;
0 <= u5_t5_h21 <= 1;
0 <= u5_t5_h22 <= 1;
0 <= u5_t5_h23 <= 1;
u5_t5_h16 + u5_t5_h17 + u5_t5_h18 + u5_t5_h19 + u5_t5_h20 + u5_t5_h21 + u5_t5_h22 + u5_t5_h23 = 2;
0 <= u5_t6_h6 <= 1;
0 <= u5_t6_h7 <= 1;
0 <= u5_t6_h8 <= 1;
0 <= u5_t6_h9 <= 1;
0 <= u5_t6_h10 <= 1;
0 <= u5_t6_h11 <= 1;
0 <= u5_t6_h12 <= 1;
0 <= u5_t6_h13 <= 1;
0 <= u5_t6_h14 <= 1;
0 <= u5_t6_h15 <= 1;
0 <= u5_t6_h16 <= 1;
0 <= u5_t6_h17 <= 1;
0 <= u5_t6_h18 <= 1;
u5_t6_h6 + u5_t6_h7 + u5_t6_h8 + u5_t6_h9 + u5_t6_h10 + u5_t6_h11 + u5_t6_h12 + u5_t6_h13 + u5_t6_h14 + u5_t6_h15 + u5_t6_h16 + u5_t6_h17 + u5_t6_h18 = 2;
0 <= u5_t7_h2 <= 1;
0 <= u5_t7_h3 <= 1;
0 <= u5_t7_h4 <= 1;
0 <= u5_t7_h5 <= 1;
0 <= u5_t7_h6 <= 1;
u5_t7_h2 + u5_t7_h3 + u5_t7_h4 + u5_t7_h5 + u5_t7_h6 = 1;
0 <= u5_t8_h13 <= 1;
0 <= u5_t8_h14 <= 1;
0 <= u5_t8_h15 <= 1;
0 <= u5_t8_h16 <= 1;
0 <= u5_t8_h17 <= 1;
u5_t8_h13 + u5_t8_h14 + u5_t8_h15 + u5_t8_h16 + u5_t8_h17 = 3;
0 <= u5_t9_h15 <= 1;
0 <= u5_t9_h16 <= 1;
0 <= u5_t9_h17 <= 1;
0 <= u5_t9_h18 <= 1;
0 <= u5_t9_h19 <= 1;
0 <= u5_t9_h20 <= 1;
0 <= u5_t9_h21 <= 1;
0 <= u5_t9_h22 <= 1;
0 <= u5_t9_h23 <= 1;
u5_t9_h15 + u5_t9_h16 + u5_t9_h17 + u5_t9_h18 + u5_t9_h19 + u5_t9_h20 + u5_t9_h21 + u5_t9_h22 + u5_t9_h23 = 1;
0 <= u5_t10_h17 <= 1;
0 <= u5_t10_h18 <= 1;
0 <= u5_t10_h19 <= 1;
0 <= u5_t10_h20 <= 1;
0 <= u5_t10_h21 <= 1;
0 <= u5_t10_h22 <= 1;
0 <= u5_t10_h23 <= 1;
u5_t10_h17 + u5_t10_h18 + u5_t10_h19 + u5_t10_h20 + u5_t10_h21 + u5_t10_h22 + u5_t10_h23 = 1;
